outputs/case_454.model.txt
broker_disclose_fee_standard = False
agent_employed_count = 1
insurance_type_responsibility = True
authority_set_management_rules = True
authority_set_minimum_and_implementation = True
bank_permitted_to_operate = False
notary = True
broker_charge_fee = False
broker = False
insurance_type_guarantee = False
agent = True
apply_agent_broker_rules = False
agent_company_and_bank_employ_minimum_agents = True
permit_registered_with_authority = True
contract_include_dispute_resolution = True
broker_duty_of_care_and_fidelity = True
management_rules_set_by_authority = True
broker_fulfill_fidelity = True
contract_include_financial_institution_account = True
agent_employed_by_multiple_companies = False
contract_include_conflict_of_interest_prevention = True
minimum_amount_and_implementation_set_by_authority = True
approved_by_authority = True
broker_provide_written_report = True
agent_employment_adjusted_appropriately = True
company_registration_completed = True
broker_exercise_duty_of_care = True
bank_permission_and_apply_agent_broker_rules = True
agent_company_and_bank_must_register_permit = True
contract_include_contract_termination = True
contract_include_agent_scope = True
contract_include_commission_standard = True
license_held = True
agent_cannot_be_employed_by_multiple_companies = True
contract_include_other_authority_requirements = True
license_and_bond_insurance_required = True
contract_include_law_compliance = True
contract_include_commission_method = True
contract_include_breach_liability = True
agent_contract_must_include_required_items = True
bond_deposited = True
agent_qualification_met = True
penalty = False
agent_qualification_and_employment_conditions = True
related_insurance_type_correct = True
related_insurance_purchased = True
agent_prohibited_condition = False
broker_provide_written_report_and_disclose_fee = True
contract_include_parties_names = True
contract_include_agent_period = True
contract_include_prohibited_behaviors = True